(set-logic SLHV)
(declare-hvar emp IntHeap)
(declare-locvar nil IntLoc)
(declare-datatype pt_record_0 ((Pt_R_0 (loc IntLoc))))
(declare-datatype pt_record_1 ((Pt_R_1 (data Int))))
(declare-const d24 Int)
(declare-locvar l43 IntLoc)
(declare-hvar ah7 IntHeap)
(declare-hvar AH_0 IntHeap)
(declare-const d23 Int)
(declare-locvar l41 IntLoc)
(declare-hvar h29 IntHeap)
(declare-hvar H_0 IntHeap)
(declare-locvar l42 IntLoc)
(declare-const loc_0 Int)
(assert
 (let (($x737 (or (= H_0 (uplus h29 (pt l41 (Pt_R_0 l42)))) (= H_0 (uplus h29 (pt l41 (Pt_R_1 d23)))))))
 (let (($x711 (and (and false $x737) (= AH_0 (uplus ah7 (pt l43 (Pt_R_1 d24)))))))
 (let (($x702 (= loc_0 5)))
 (let (($x703 (and (and (= H_0 emp) (= AH_0 emp)) $x702)))
 (and $x703 $x711))))))
(check-sat)
